data/solutions/recovery/degenerate/intermediate/flexible/degenerate_intermediate_instance23/102.sol
Elapsed time: 100.51
Upper bound: 226687599.0
Planning weighted value: 9.8309218439e+11
C[0]=226687599.0
C[1]=226343145.0
C[2]=226245688.0
C[3]=226231634.0
C[4]=226101649.0
C[5]=225756253.0
C[6]=225656826.0
C[7]=225201573.0
C[8]=224823322.0
C[9]=224704396.0
C[10]=224653815.0
C[11]=0.0
y[0]=8
y[1]=4
y[2]=8
y[3]=0
y[4]=7
y[5]=3
y[6]=4
y[7]=8
y[8]=10
y[9]=7
y[10]=6
y[11]=4
y[12]=3
y[13]=1
y[14]=2
y[15]=6
y[16]=9
y[17]=0
y[18]=1
y[19]=1
y[20]=3
y[21]=0
y[22]=2
y[23]=6
y[24]=7
y[25]=8
y[26]=7
y[27]=10
y[28]=0
y[29]=10
y[30]=9
y[31]=7
y[32]=2
y[33]=1
y[34]=8
y[35]=9
y[36]=5
y[37]=8
y[38]=7
y[39]=10
y[40]=7
y[41]=6
y[42]=0
y[43]=2
y[44]=3
y[45]=10
y[46]=3
y[47]=4
y[48]=3
y[49]=9
y[50]=5
y[51]=1
y[52]=5
y[53]=4
y[54]=4
y[55]=3
y[56]=9
y[57]=0
y[58]=4
y[59]=5
y[60]=10
y[61]=6
y[62]=5
y[63]=10
y[64]=5
y[65]=3
y[66]=6
y[67]=2
y[68]=9
y[69]=9
y[70]=5
y[71]=9
y[72]=2
y[73]=3
y[74]=2
y[75]=6
y[76]=6
y[77]=1
