data/solutions/recovery/degenerate/intermediate/flexible/degenerate_intermediate_instance23/102.log

Log started (V12.6.3.0) Sat Apr 21 17:17:46 2018

New value for default parallel thread count: 1

Problem '/tmp/tmplXSNAS.pyomo.lp' read.
Read time = 0.02 sec. (0.85 ticks)

Problem name         : /tmp/tmplXSNAS.pyomo.lp
Objective sense      : Minimize
Variables            :     950  [Nneg: 1,  Binary: 936,  General Integer: 13]
Objective nonzeros   :       1
Linear constraints   :     182  [Less: 90,  Equal: 92]
  Nonzeros           :   61117
  RHS nonzeros       :     157

Variables            : Min LB: 0.000000         Max UB: 1.000000       
Objective nonzeros   : Min   : 1.000000         Max   : 1.000000       
Linear constraints   :
  Nonzeros           : Min   : 1.000000         Max   : 6.145599e+07   
  RHS nonzeros       : Min   : 1.000000         Max   : 8.000000       
Tried aggregator 2 times.
MIP Presolve eliminated 81 rows and 140 columns.
Aggregator did 6 substitutions.
Reduced MIP has 95 rows, 804 columns, and 2247 nonzeros.
Reduced MIP has 792 binaries, 12 generals, 0 SOSs, and 0 indicators.
Presolve time = 0.01 sec. (11.04 ticks)
Found incumbent of value 8.0458121e+08 after 0.01 sec. (12.59 ticks)
Probing time = 0.00 sec. (1.59 ticks)
Tried aggregator 1 time.
Reduced MIP has 95 rows, 804 columns, and 2247 nonzeros.
Reduced MIP has 792 binaries, 12 generals, 0 SOSs, and 0 indicators.
Presolve time = 0.00 sec. (1.15 ticks)
Probing time = 0.00 sec. (1.59 ticks)
Clique table members: 72.
MIP emphasis: balance optimality and feasibility.
MIP search method: dynamic search.
Parallel mode: none, using 1 thread.
Root relaxation solution time = 0.00 sec. (1.36 ticks)

        Nodes                                         Cuts/
   Node  Left     Objective  IInf  Best Integer    Best Bound    ItCnt     Gap

*     0+    0                       8.04581e+08        0.0000           100.00%
      0     0   2.25673e+08    29   8.04581e+08   2.25673e+08      122   71.95%
      0     0   2.25673e+08    23   8.04581e+08      Fract: 8      139   71.95%
      0     0   2.25673e+08    30   8.04581e+08      Fract: 4      158   71.95%
      0     0   2.25673e+08    19   8.04581e+08      Fract: 2      162   71.95%
*     0+    0                       2.48083e+08   2.25673e+08             9.03%
*     0+    0                       2.46846e+08   2.25673e+08             8.58%
*     0+    0                       2.43220e+08   2.25673e+08             7.21%
      0     2   2.25673e+08    18   2.43220e+08   2.25673e+08      162    7.21%
Elapsed time = 0.06 sec. (66.93 ticks, tree = 0.01 MB, solutions = 4)
*   100+   93                       2.31501e+08   2.25673e+08             2.52%
*   997+  804                       2.30966e+08   2.25673e+08             2.29%
*   997+  804                       2.30957e+08   2.25673e+08             2.29%
*   997+  794                       2.30383e+08   2.25673e+08             2.04%
    997   796   2.25673e+08    23   2.30383e+08   2.25673e+08     4339    2.04%
    998   797   2.25673e+08    18   2.30383e+08   2.25673e+08     4354    2.04%
    999   798   2.25673e+08    18   2.30383e+08   2.25673e+08     4734    2.04%
*  1000+  531                       2.30276e+08   2.25673e+08             2.00%
   1000   532   2.25673e+08    16   2.30276e+08   2.25673e+08     4735    2.00%
   1001   533   2.25673e+08    21   2.30276e+08   2.25673e+08     4757    2.00%
   1002   533   2.25673e+08    16   2.30276e+08   2.25673e+08     4760    2.00%
   1003   533   2.25673e+08    18   2.30276e+08   2.25673e+08     4780    2.00%
   1004   533   2.25673e+08    17   2.30276e+08   2.25673e+08     4785    2.00%
   1005   533   2.25673e+08    17   2.30276e+08   2.25673e+08     4787    2.00%
*  1199+  412                       2.29840e+08   2.25673e+08             1.81%
*  1199+  322                       2.29538e+08   2.25673e+08             1.68%
   1372   271   2.28880e+08    14   2.29538e+08   2.25673e+08     6638    1.68%
Elapsed time = 0.85 sec. (1021.08 ticks, tree = 0.15 MB, solutions = 11)
*  1599+  307                       2.29073e+08   2.25673e+08             1.48%
*  1999+  523                       2.28747e+08   2.25673e+08             1.34%
*  1999+  523                       2.28721e+08   2.25673e+08             1.33%
*  2399+  608                       2.28273e+08   2.25673e+08             1.14%
*  2599+  718                       2.28069e+08   2.25673e+08             1.05%
   2599   720   2.26445e+08    27   2.28069e+08   2.25673e+08    15321    1.05%
   2600   721   2.26445e+08    27   2.28069e+08   2.25673e+08    15322    1.05%
   2601   722   2.26445e+08    32   2.28069e+08   2.25673e+08    15335    1.05%
   2602   723   2.26445e+08    30   2.28069e+08   2.25673e+08    15341    1.05%
   2603   724   2.26445e+08    28   2.28069e+08   2.25673e+08    15342    1.05%
   2604   725   2.26445e+08    28   2.28069e+08   2.25673e+08    15344    1.05%
   2605   726   2.26445e+08    27   2.28069e+08   2.25673e+08    15345    1.05%
   2606   727   2.26445e+08    27   2.28069e+08   2.25673e+08    15347    1.05%
   2607   728   2.26445e+08    33   2.28069e+08   2.25673e+08    15351    1.05%
   2608   729   2.26445e+08    31   2.28069e+08   2.25673e+08    15352    1.05%
Elapsed time = 1.72 sec. (2066.86 ticks, tree = 0.44 MB, solutions = 16)
   5634  3130   2.25925e+08    35   2.28069e+08   2.25673e+08    32412    1.05%
   5635  3131   2.25925e+08    34   2.28069e+08   2.25673e+08    32417    1.05%
   5636  3131   2.25925e+08    34   2.28069e+08   2.25673e+08    32422    1.05%
   5637  3132   2.25925e+08    34   2.28069e+08   2.25673e+08    32425    1.05%
   5638  3133   2.25925e+08    34   2.28069e+08   2.25673e+08    32430    1.05%
   5639  3133   2.25925e+08    32   2.28069e+08   2.25673e+08    32431    1.05%
   5640  3134   2.25925e+08    34   2.28069e+08   2.25673e+08    32434    1.05%
   5641  3135   2.25925e+08    33   2.28069e+08   2.25673e+08    32435    1.05%
   5642  3136   2.25925e+08    32   2.28069e+08   2.25673e+08    32441    1.05%
   5643  3136   2.26558e+08    30   2.28069e+08   2.25673e+08    32448    1.05%
Elapsed time = 2.43 sec. (3025.38 ticks, tree = 1.96 MB, solutions = 16)
   9011  6023   2.25673e+08    23   2.28069e+08   2.25673e+08    51542    1.05%
   9012  6024   2.25673e+08    22   2.28069e+08   2.25673e+08    51543    1.05%
   9013  6025   2.25673e+08    25   2.28069e+08   2.25673e+08    51549    1.05%
   9014  6026   2.25673e+08    24   2.28069e+08   2.25673e+08    51553    1.05%
   9015  6027   2.25673e+08    21   2.28069e+08   2.25673e+08    51563    1.05%
   9016  6028   2.25673e+08    22   2.28069e+08   2.25673e+08    51588    1.05%
   9017  6029   2.25673e+08    21   2.28069e+08   2.25673e+08    51589    1.05%
   9018  6030   2.25673e+08    22   2.28069e+08   2.25673e+08    51592    1.05%
   9019  6031   2.25673e+08    23   2.28069e+08   2.25673e+08    51594    1.05%
   9020  6032   2.25673e+08    25   2.28069e+08   2.25673e+08    51601    1.05%
Elapsed time = 3.16 sec. (3982.73 ticks, tree = 3.82 MB, solutions = 16)
  10959  7506   2.25673e+08    24   2.28069e+08   2.25673e+08    66103    1.05%
  10960  7507   2.25673e+08    20   2.28069e+08   2.25673e+08    66113    1.05%
  10961  7506        cutoff         2.28069e+08   2.25673e+08    66167    1.05%
  10962  7505        cutoff         2.28069e+08   2.25673e+08    66203    1.05%
  10963  7504        cutoff         2.28069e+08   2.25673e+08    66245    1.05%
  10964  7505   2.25673e+08    20   2.28069e+08   2.25673e+08    66261    1.05%
  10965  7506   2.25673e+08    29   2.28069e+08   2.25673e+08    66297    1.05%
  10966  7507   2.25673e+08    26   2.28069e+08   2.25673e+08    66304    1.05%
  10967  7508   2.25673e+08    28   2.28069e+08   2.25673e+08    66309    1.05%
  10968  7509   2.25673e+08    26   2.28069e+08   2.25673e+08    66311    1.05%
Elapsed time = 3.99 sec. (4968.22 ticks, tree = 4.74 MB, solutions = 16)
  14657 10516   2.25673e+08    21   2.28069e+08   2.25673e+08    87745    1.05%
  14658 10517   2.25673e+08    21   2.28069e+08   2.25673e+08    87746    1.05%
  14659 10518   2.25673e+08    21   2.28069e+08   2.25673e+08    87750    1.05%
  14660 10519   2.25673e+08    23   2.28069e+08   2.25673e+08    87759    1.05%
  14661 10519   2.25703e+08    36   2.28069e+08   2.25673e+08    87831    1.05%
  14662 10520   2.26454e+08    21   2.28069e+08   2.25673e+08    87841    1.05%
  14663 10521   2.26454e+08    24   2.28069e+08   2.25673e+08    87847    1.05%
  14664 10522   2.26454e+08    23   2.28069e+08   2.25673e+08    87850    1.05%
  14665 10523   2.26454e+08    23   2.28069e+08   2.25673e+08    87851    1.05%
  14666 10524   2.26600e+08    20   2.28069e+08   2.25673e+08    87854    1.05%
Elapsed time = 4.74 sec. (5926.83 ticks, tree = 6.95 MB, solutions = 16)
  17738 13029   2.25673e+08    23   2.28069e+08   2.25673e+08   110394    1.05%
  17739 13030   2.25673e+08    24   2.28069e+08   2.25673e+08   110438    1.05%
  17740 13031   2.25673e+08    24   2.28069e+08   2.25673e+08   110441    1.05%
  17741 13032   2.25673e+08    25   2.28069e+08   2.25673e+08   110456    1.05%
  17742 13031        cutoff         2.28069e+08   2.25673e+08   110598    1.05%
  17743 13032   2.25996e+08    29   2.28069e+08   2.25673e+08   110655    1.05%
  17744 13033   2.26019e+08    29   2.28069e+08   2.25673e+08   110656    1.05%
  17745 13034   2.26019e+08    31   2.28069e+08   2.25673e+08   110662    1.05%
  17746 13035   2.26019e+08    31   2.28069e+08   2.25673e+08   110663    1.05%
  17747 13034        cutoff         2.28069e+08   2.25673e+08   110671    1.05%
Elapsed time = 5.48 sec. (6888.98 ticks, tree = 8.46 MB, solutions = 16)
  19749 14544   2.25673e+08    25   2.28069e+08   2.25673e+08   136800    1.05%
  19750 14545   2.25673e+08    25   2.28069e+08   2.25673e+08   136803    1.05%
  19751 14546   2.25673e+08    23   2.28069e+08   2.25673e+08   136812    1.05%
  19752 14547   2.25673e+08    23   2.28069e+08   2.25673e+08   136815    1.05%
  19753 14548   2.25673e+08    24   2.28069e+08   2.25673e+08   136826    1.05%
  19754 14549   2.25673e+08    23   2.28069e+08   2.25673e+08   136829    1.05%
  19755 14550   2.25673e+08    22   2.28069e+08   2.25673e+08   136835    1.05%
  19756 14551   2.25673e+08    22   2.28069e+08   2.25673e+08   136838    1.05%
  19757 14552   2.25673e+08    26   2.28069e+08   2.25673e+08   136855    1.05%
  19758 14553   2.25673e+08    25   2.28069e+08   2.25673e+08   136884    1.05%
Elapsed time = 6.21 sec. (7851.22 ticks, tree = 9.37 MB, solutions = 16)
  21548 15908   2.25931e+08    42   2.28069e+08   2.25673e+08   163775    1.05%
  21549 15907        cutoff         2.28069e+08   2.25673e+08   163782    1.05%
  21550 15906        cutoff         2.28069e+08   2.25673e+08   163787    1.05%
  21551 15907   2.25673e+08    21   2.28069e+08   2.25673e+08   163848    1.05%
  21552 15908   2.25673e+08    20   2.28069e+08   2.25673e+08   163854    1.05%
  21553 15909   2.25673e+08    21   2.28069e+08   2.25673e+08   163855    1.05%
  21554 15910   2.25673e+08    19   2.28069e+08   2.25673e+08   163864    1.05%
  21555 15911   2.25673e+08    24   2.28069e+08   2.25673e+08   163869    1.05%
  21556 15912   2.25673e+08    26   2.28069e+08   2.25673e+08   163876    1.05%
  21557 15913   2.25673e+08    27   2.28069e+08   2.25673e+08   163877    1.05%
Elapsed time = 6.92 sec. (8813.49 ticks, tree = 10.18 MB, solutions = 16)
* 22625 16362      integral     0   2.27758e+08   2.25673e+08   174089    0.92%
  23572 16911    infeasible         2.27758e+08   2.25673e+08   191037    0.92%
  23573 16910        cutoff         2.27758e+08   2.25673e+08   191180    0.92%
  23574 16911   2.25673e+08    27   2.27758e+08   2.25673e+08   191225    0.92%
  23575 16912   2.25673e+08    26   2.27758e+08   2.25673e+08   191231    0.92%
  23576 16913   2.25673e+08    24   2.27758e+08   2.25673e+08   191251    0.92%
  23577 16914   2.25673e+08    22   2.27758e+08   2.25673e+08   191261    0.92%
  23578 16915   2.25673e+08    25   2.27758e+08   2.25673e+08   191269    0.92%
  23579 16916   2.25673e+08    25   2.27758e+08   2.25673e+08   191282    0.92%
  23580 16917   2.25673e+08    25   2.27758e+08   2.25673e+08   191292    0.92%
  29213 20662   2.25673e+08    19   2.27758e+08   2.25673e+08   265447    0.92%
Elapsed time = 9.77 sec. (12628.54 ticks, tree = 13.58 MB, solutions = 17)
  37073 27317   2.25766e+08    31   2.27758e+08   2.25673e+08   358777    0.92%
  37074 27318   2.25771e+08    31   2.27758e+08   2.25673e+08   358778    0.92%
  37075 27319   2.25771e+08    34   2.27758e+08   2.25673e+08   358781    0.92%
  37076 27320   2.25771e+08    32   2.27758e+08   2.25673e+08   358783    0.92%
  37077 27321   2.25771e+08    32   2.27758e+08   2.25673e+08   358784    0.92%
  37078 27322   2.25807e+08    31   2.27758e+08   2.25673e+08   358786    0.92%
  37079 27323   2.25832e+08    30   2.27758e+08   2.25673e+08   358788    0.92%
  37080 27322        cutoff         2.27758e+08   2.25673e+08   358830    0.92%
  37081 27323   2.25832e+08    32   2.27758e+08   2.25673e+08   358832    0.92%
  37082 27324   2.26007e+08    29   2.27758e+08   2.25673e+08   358835    0.92%
Elapsed time = 12.55 sec. (16446.34 ticks, tree = 17.56 MB, solutions = 17)
  43705 32896   2.25715e+08    34   2.27758e+08   2.25673e+08   450852    0.92%
  43706 32897   2.26049e+08    33   2.27758e+08   2.25673e+08   450897    0.92%
  43707 32898   2.26049e+08    31   2.27758e+08   2.25673e+08   450899    0.92%
  43708 32899   2.26049e+08    31   2.27758e+08   2.25673e+08   450910    0.92%
  43709 32900   2.26049e+08    31   2.27758e+08   2.25673e+08   450915    0.92%
  43710 32901   2.26049e+08    31   2.27758e+08   2.25673e+08   450916    0.92%
  43711 32902   2.26049e+08    31   2.27758e+08   2.25673e+08   450919    0.92%
  43712 32903   2.26049e+08    30   2.27758e+08   2.25673e+08   450936    0.92%
  43713 32904   2.26049e+08    30   2.27758e+08   2.25673e+08   450940    0.92%
  43714 32905   2.26049e+08    29   2.27758e+08   2.25673e+08   450941    0.92%
Elapsed time = 15.32 sec. (20266.51 ticks, tree = 21.80 MB, solutions = 17)
  51088 39452   2.25673e+08    25   2.27758e+08   2.25673e+08   545334    0.92%
  51089 39453   2.25673e+08    23   2.27758e+08   2.25673e+08   545342    0.92%
  51090 39454   2.25673e+08    24   2.27758e+08   2.25673e+08   545347    0.92%
  51091 39455   2.25673e+08    24   2.27758e+08   2.25673e+08   545373    0.92%
  51092 39456   2.25673e+08    23   2.27758e+08   2.25673e+08   545381    0.92%
  51093 39457   2.25673e+08    24   2.27758e+08   2.25673e+08   545395    0.92%
  51094 39458   2.25673e+08    22   2.27758e+08   2.25673e+08   545414    0.92%
  51095 39459   2.25673e+08    23   2.27758e+08   2.25673e+08   545416    0.92%
  51096 39460   2.25673e+08    22   2.27758e+08   2.25673e+08   545419    0.92%
  51097 39461   2.25673e+08    23   2.27758e+08   2.25673e+08   545420    0.92%
Elapsed time = 18.05 sec. (24084.25 ticks, tree = 25.64 MB, solutions = 17)
  55828 43410   2.25673e+08    37   2.27758e+08   2.25673e+08   631971    0.92%
  55829 43411   2.25673e+08    37   2.27758e+08   2.25673e+08   631973    0.92%
  55830 43412   2.25673e+08    34   2.27758e+08   2.25673e+08   631995    0.92%
  55831 43413   2.25673e+08    30   2.27758e+08   2.25673e+08   631996    0.92%
  55832 43414   2.25673e+08    32   2.27758e+08   2.25673e+08   632018    0.92%
  55833 43415   2.25673e+08    36   2.27758e+08   2.25673e+08   632091    0.92%
  55834 43416   2.25673e+08    35   2.27758e+08   2.25673e+08   632098    0.92%
  55835 43416   2.25707e+08    39   2.27758e+08   2.25673e+08   632135    0.92%
  55836 43417   2.26989e+08    19   2.27758e+08   2.25673e+08   632160    0.92%
  55837 43416    infeasible         2.27758e+08   2.25673e+08   632160    0.92%
Elapsed time = 20.73 sec. (27906.55 ticks, tree = 27.98 MB, solutions = 17)
  60653 47634   2.25673e+08    28   2.27758e+08   2.25673e+08   715666    0.92%
  60654 47635   2.25673e+08    26   2.27758e+08   2.25673e+08   715667    0.92%
  60655 47636   2.25673e+08    24   2.27758e+08   2.25673e+08   715668    0.92%
  60656 47637   2.25673e+08    21   2.27758e+08   2.25673e+08   715670    0.92%
  60657 47638   2.25673e+08    22   2.27758e+08   2.25673e+08   715687    0.92%
  60658 47639   2.25673e+08    24   2.27758e+08   2.25673e+08   715703    0.92%
  60659 47640   2.25673e+08    23   2.27758e+08   2.25673e+08   715705    0.92%
  60660 47641   2.25673e+08    24   2.27758e+08   2.25673e+08   715710    0.92%
  60661 47642   2.25673e+08    24   2.27758e+08   2.25673e+08   715736    0.92%
  60662 47643   2.25673e+08    25   2.27758e+08   2.25673e+08   715757    0.92%
Elapsed time = 23.45 sec. (31728.67 ticks, tree = 30.54 MB, solutions = 17)
* 65799+49171                       2.27135e+08   2.25673e+08             0.64%
  65799 49173   2.26017e+08    27   2.27135e+08   2.25673e+08   802453    0.64%
  65800 49174   2.26059e+08    28   2.27135e+08   2.25673e+08   802457    0.64%
  65801 49174   2.26397e+08    25   2.27135e+08   2.25673e+08   802468    0.64%
  65802 49174   2.26446e+08    25   2.27135e+08   2.25673e+08   802471    0.64%
  65803 49174   2.26457e+08    29   2.27135e+08   2.25673e+08   802475    0.64%
  65804 49175   2.26457e+08    29   2.27135e+08   2.25673e+08   802476    0.64%
  65805 49176   2.26457e+08    30   2.27135e+08   2.25673e+08   802477    0.64%
  65806 49175    infeasible         2.27135e+08   2.25673e+08   802477    0.64%
  65807 49176   2.26457e+08    29   2.27135e+08   2.25673e+08   802478    0.64%
  65808 49175        cutoff         2.27135e+08   2.25673e+08   802480    0.64%
Elapsed time = 26.18 sec. (35560.98 ticks, tree = 31.29 MB, solutions = 18)
  70690 53333        cutoff         2.27135e+08   2.25673e+08   892830    0.64%
  70691 53332        cutoff         2.27135e+08   2.25673e+08   892876    0.64%
  70692 53333   2.25673e+08    26   2.27135e+08   2.25673e+08   892974    0.64%
  70693 53334   2.25673e+08    20   2.27135e+08   2.25673e+08   892989    0.64%
  70694 53335   2.25673e+08    21   2.27135e+08   2.25673e+08   893009    0.64%
  70695 53336   2.25673e+08    21   2.27135e+08   2.25673e+08   893022    0.64%
  70696 53337   2.25673e+08    21   2.27135e+08   2.25673e+08   893024    0.64%
  70697 53338   2.25673e+08    25   2.27135e+08   2.25673e+08   893028    0.64%
  70698 53339   2.25673e+08    24   2.27135e+08   2.25673e+08   893056    0.64%
  70699 53340   2.25673e+08    24   2.27135e+08   2.25673e+08   893073    0.64%
Elapsed time = 28.88 sec. (39384.59 ticks, tree = 33.88 MB, solutions = 18)
  75418 56563   2.25673e+08    23   2.27135e+08   2.25673e+08   993724    0.64%
  75419 56564   2.25673e+08    23   2.27135e+08   2.25673e+08   993748    0.64%
  75420 56565   2.25673e+08    23   2.27135e+08   2.25673e+08   993752    0.64%
  75421 56566   2.25673e+08    21   2.27135e+08   2.25673e+08   993803    0.64%
  75422 56567   2.25673e+08    21   2.27135e+08   2.25673e+08   993830    0.64%
  75423 56568   2.25673e+08    24   2.27135e+08   2.25673e+08   993913    0.64%
  75424 56569   2.25673e+08    29   2.27135e+08   2.25673e+08   993917    0.64%
  75425 56570   2.25673e+08    28   2.27135e+08   2.25673e+08   993918    0.64%
  75426 56571   2.25673e+08    28   2.27135e+08   2.25673e+08   993923    0.64%
  75427 56572   2.25673e+08    31   2.27135e+08   2.25673e+08   993971    0.64%
Elapsed time = 31.77 sec. (43210.52 ticks, tree = 35.98 MB, solutions = 18)
  79539 58985   2.25673e+08    19   2.27135e+08   2.25673e+08  1087373    0.64%
  79540 58986   2.25730e+08    31   2.27135e+08   2.25673e+08  1087464    0.64%
  79541 58987   2.27072e+08    28   2.27135e+08   2.25673e+08  1087492    0.64%
  79542 58988   2.27072e+08    27   2.27135e+08   2.25673e+08  1087499    0.64%
  79543 58989   2.27072e+08    27   2.27135e+08   2.25673e+08  1087500    0.64%
  79544 58990   2.27072e+08    30   2.27135e+08   2.25673e+08  1087503    0.64%
  79545 58991   2.27072e+08    28   2.27135e+08   2.25673e+08  1087505    0.64%
  79546 58990        cutoff         2.27135e+08   2.25673e+08  1087514    0.64%
  79547 58989    infeasible         2.27135e+08   2.25673e+08  1087514    0.64%
  79548 58988        cutoff         2.27135e+08   2.25673e+08  1087534    0.64%
Elapsed time = 35.32 sec. (47030.77 ticks, tree = 37.55 MB, solutions = 18)
  83599 61111   2.26489e+08    18   2.27135e+08   2.25673e+08  1177709    0.64%
  83600 61112   2.26489e+08    19   2.27135e+08   2.25673e+08  1177715    0.64%
  83601 61113   2.26489e+08    20   2.27135e+08   2.25673e+08  1177724    0.64%
  83602 61114   2.26489e+08    18   2.27135e+08   2.25673e+08  1177735    0.64%
  83603 61115   2.26489e+08    20   2.27135e+08   2.25673e+08  1177739    0.64%
  83604 61116   2.26489e+08    18   2.27135e+08   2.25673e+08  1177740    0.64%
  83605 61117   2.26489e+08    18   2.27135e+08   2.25673e+08  1177758    0.64%
  83606 61118   2.26489e+08    16   2.27135e+08   2.25673e+08  1177759    0.64%
  83607 61117        cutoff         2.27135e+08   2.25673e+08  1177791    0.64%
  83608 61118   2.26489e+08    16   2.27135e+08   2.25673e+08  1177866    0.64%
Elapsed time = 38.94 sec. (50969.98 ticks, tree = 38.95 MB, solutions = 18)
  88852 64006        cutoff         2.27135e+08   2.25673e+08  1270050    0.64%
  88853 64007   2.25673e+08    14   2.27135e+08   2.25673e+08  1270118    0.64%
  88854 64008   2.26127e+08    25   2.27135e+08   2.25673e+08  1270202    0.64%
  88855 64007        cutoff         2.27135e+08   2.25673e+08  1270208    0.64%
  88856 64006        cutoff         2.27135e+08   2.25673e+08  1270213    0.64%
  88857 64005        cutoff         2.27135e+08   2.25673e+08  1270228    0.64%
  88858 64004        cutoff         2.27135e+08   2.25673e+08  1270237    0.64%
  88859 64005   2.25926e+08    22   2.27135e+08   2.25673e+08  1270306    0.64%
  88860 64004        cutoff         2.27135e+08   2.25673e+08  1270308    0.64%
  88861 64003        cutoff         2.27135e+08   2.25673e+08  1270313    0.64%
Elapsed time = 42.40 sec. (54796.27 ticks, tree = 40.92 MB, solutions = 18)
  93399 66270   2.25673e+08    19   2.27135e+08   2.25673e+08  1356712    0.64%
  93400 66271   2.25673e+08    19   2.27135e+08   2.25673e+08  1356719    0.64%
  93401 66272   2.25673e+08    18   2.27135e+08   2.25673e+08  1356720    0.64%
  93402 66273   2.25673e+08    21   2.27135e+08   2.25673e+08  1356772    0.64%
  93403 66274   2.25673e+08    22   2.27135e+08   2.25673e+08  1356859    0.64%
  93404 66275   2.25673e+08    20   2.27135e+08   2.25673e+08  1356876    0.64%
  93405 66276   2.25673e+08    20   2.27135e+08   2.25673e+08  1356901    0.64%
  93406 66277   2.25673e+08    21   2.27135e+08   2.25673e+08  1356918    0.64%
  93407 66278   2.25673e+08    21   2.27135e+08   2.25673e+08  1356919    0.64%
  93408 66279   2.25673e+08    23   2.27135e+08   2.25673e+08  1356932    0.64%
Elapsed time = 45.89 sec. (58621.45 ticks, tree = 44.38 MB, solutions = 18)
  97850 69144   2.25673e+08    14   2.27135e+08   2.25673e+08  1449817    0.64%
  97851 69145   2.25673e+08    14   2.27135e+08   2.25673e+08  1449826    0.64%
  97852 69146   2.25673e+08    13   2.27135e+08   2.25673e+08  1449908    0.64%
  97853 69147   2.25673e+08    21   2.27135e+08   2.25673e+08  1449987    0.64%
  97854 69147   2.25673e+08    22   2.27135e+08   2.25673e+08  1450054    0.64%
  97855 69148   2.25673e+08    22   2.27135e+08   2.25673e+08  1450060    0.64%
  97856 69149   2.25673e+08    22   2.27135e+08   2.25673e+08  1450061    0.64%
  97857 69150   2.25673e+08    21   2.27135e+08   2.25673e+08  1450063    0.64%
  97858 69151   2.25673e+08    21   2.27135e+08   2.25673e+08  1450065    0.64%
  97859 69152   2.25924e+08    14   2.27135e+08   2.25673e+08  1450115    0.64%
Elapsed time = 49.41 sec. (62449.67 ticks, tree = 46.24 MB, solutions = 18)
 102559 71211   2.25673e+08    22   2.27135e+08   2.25673e+08  1541470    0.64%
 102560 71212   2.25673e+08    22   2.27135e+08   2.25673e+08  1541475    0.64%
 102561 71213   2.25673e+08    22   2.27135e+08   2.25673e+08  1541485    0.64%
 102562 71214   2.25673e+08    21   2.27135e+08   2.25673e+08  1541498    0.64%
 102563 71215   2.25673e+08    21   2.27135e+08   2.25673e+08  1541500    0.64%
 102564 71216   2.25673e+08    20   2.27135e+08   2.25673e+08  1541511    0.64%
 102565 71217   2.25673e+08    20   2.27135e+08   2.25673e+08  1541555    0.64%
 102566 71218   2.25673e+08    20   2.27135e+08   2.25673e+08  1541581    0.64%
 102567 71219   2.25673e+08    20   2.27135e+08   2.25673e+08  1541594    0.64%
 102568 71220   2.25673e+08    20   2.27135e+08   2.25673e+08  1541601    0.64%
Elapsed time = 52.94 sec. (66271.31 ticks, tree = 47.71 MB, solutions = 18)
 106866 73363   2.25673e+08    22   2.27135e+08   2.25673e+08  1632304    0.64%
 106867 73364   2.25673e+08    20   2.27135e+08   2.25673e+08  1632311    0.64%
 106868 73365   2.25673e+08    20   2.27135e+08   2.25673e+08  1632315    0.64%
 106869 73366   2.25673e+08    23   2.27135e+08   2.25673e+08  1632395    0.64%
 106870 73367   2.25673e+08    22   2.27135e+08   2.25673e+08  1632398    0.64%
 106871 73368   2.25673e+08    22   2.27135e+08   2.25673e+08  1632399    0.64%
 106872 73369   2.25673e+08    23   2.27135e+08   2.25673e+08  1632400    0.64%
 106873 73370   2.25673e+08    24   2.27135e+08   2.25673e+08  1632402    0.64%
 106874 73371   2.25673e+08    24   2.27135e+08   2.25673e+08  1632406    0.64%
 106875 73372   2.25673e+08    23   2.27135e+08   2.25673e+08  1632410    0.64%
Elapsed time = 56.47 sec. (70092.99 ticks, tree = 49.15 MB, solutions = 18)
 111616 75858   2.25808e+08    19   2.27135e+08   2.25673e+08  1724866    0.64%
 111617 75859   2.25808e+08    19   2.27135e+08   2.25673e+08  1724869    0.64%
 111618 75860   2.25808e+08    18   2.27135e+08   2.25673e+08  1724889    0.64%
 111619 75861   2.25808e+08    16   2.27135e+08   2.25673e+08  1724890    0.64%
 111620 75862   2.25808e+08    19   2.27135e+08   2.25673e+08  1724902    0.64%
 111621 75863   2.25808e+08    19   2.27135e+08   2.25673e+08  1724903    0.64%
 111622 75864   2.25808e+08    19   2.27135e+08   2.25673e+08  1724904    0.64%
 111623 75865   2.25808e+08    18   2.27135e+08   2.25673e+08  1724905    0.64%
 111624 75866   2.25808e+08    17   2.27135e+08   2.25673e+08  1724917    0.64%
 111625 75867   2.25808e+08    13   2.27135e+08   2.25673e+08  1724919    0.64%
Elapsed time = 60.00 sec. (73911.51 ticks, tree = 50.83 MB, solutions = 18)
 116984 79151   2.25673e+08    19   2.27135e+08   2.25673e+08  1810656    0.64%
 116985 79152   2.25673e+08    22   2.27135e+08   2.25673e+08  1810721    0.64%
 116986 79153   2.25673e+08    19   2.27135e+08   2.25673e+08  1810729    0.64%
 116987 79154   2.25673e+08    20   2.27135e+08   2.25673e+08  1810736    0.64%
 116988 79155   2.25673e+08    19   2.27135e+08   2.25673e+08  1810741    0.64%
 116989 79156   2.25673e+08    25   2.27135e+08   2.25673e+08  1810790    0.64%
 116990 79157   2.25673e+08    24   2.27135e+08   2.25673e+08  1810792    0.64%
 116991 79158   2.25673e+08    22   2.27135e+08   2.25673e+08  1810793    0.64%
 116992 79159   2.25673e+08    23   2.27135e+08   2.25673e+08  1810794    0.64%
 116993 79160   2.25673e+08    22   2.27135e+08   2.25673e+08  1810800    0.64%
Elapsed time = 63.47 sec. (77734.36 ticks, tree = 53.05 MB, solutions = 18)
 121233 81781   2.25673e+08    18   2.27135e+08   2.25673e+08  1897055    0.64%
 121234 81782   2.25673e+08    20   2.27135e+08   2.25673e+08  1897110    0.64%
 121235 81783   2.25673e+08    19   2.27135e+08   2.25673e+08  1897123    0.64%
 121236 81784   2.25673e+08    28   2.27135e+08   2.25673e+08  1897187    0.64%
 121237 81785   2.25673e+08    25   2.27135e+08   2.25673e+08  1897195    0.64%
 121238 81786   2.25673e+08    22   2.27135e+08   2.25673e+08  1897203    0.64%
 121239 81787   2.25673e+08    23   2.27135e+08   2.25673e+08  1897226    0.64%
 121240 81788   2.25673e+08    23   2.27135e+08   2.25673e+08  1897227    0.64%
 121241 81789   2.25673e+08    24   2.27135e+08   2.25673e+08  1897230    0.64%
 121242 81790   2.25673e+08    22   2.27135e+08   2.25673e+08  1897244    0.64%
Elapsed time = 67.02 sec. (81559.20 ticks, tree = 54.76 MB, solutions = 18)
 125734 84821   2.25673e+08    24   2.27135e+08   2.25673e+08  1985097    0.64%
 125735 84822   2.25673e+08    26   2.27135e+08   2.25673e+08  1985102    0.64%
 125736 84823   2.25673e+08    26   2.27135e+08   2.25673e+08  1985103    0.64%
 125737 84824   2.25673e+08    26   2.27135e+08   2.25673e+08  1985104    0.64%
 125738 84825   2.25673e+08    26   2.27135e+08   2.25673e+08  1985105    0.64%
 125739 84826   2.26558e+08    20   2.27135e+08   2.25673e+08  1985162    0.64%
 125740 84827   2.26558e+08    20   2.27135e+08   2.25673e+08  1985163    0.64%
 125741 84827   2.26558e+08    21   2.27135e+08   2.25673e+08  1985164    0.64%
 125742 84828   2.26558e+08    21   2.27135e+08   2.25673e+08  1985165    0.64%
 125743 84828   2.26558e+08    20   2.27135e+08   2.25673e+08  1985166    0.64%
Elapsed time = 70.55 sec. (85377.23 ticks, tree = 56.73 MB, solutions = 18)
 130317 87860   2.26000e+08    28   2.27135e+08   2.25673e+08  2077445    0.64%
 130318 87859        cutoff         2.27135e+08   2.25673e+08  2077452    0.64%
 130319 87858        cutoff         2.27135e+08   2.25673e+08  2077456    0.64%
 130320 87857        cutoff         2.27135e+08   2.25673e+08  2077511    0.64%
 130321 87858   2.26000e+08    26   2.27135e+08   2.25673e+08  2077614    0.64%
 130322 87857        cutoff         2.27135e+08   2.25673e+08  2077626    0.64%
 130323 87856        cutoff         2.27135e+08   2.25673e+08  2077632    0.64%
 130324 87855    infeasible         2.27135e+08   2.25673e+08  2077699    0.64%
 130325 87854        cutoff         2.27135e+08   2.25673e+08  2077741    0.64%
 130326 87853    infeasible         2.27135e+08   2.25673e+08  2077838    0.64%
Elapsed time = 74.14 sec. (89210.67 ticks, tree = 58.66 MB, solutions = 18)
 134424 90489   2.25673e+08    26   2.27135e+08   2.25673e+08  2159475    0.64%
 134425 90490   2.25673e+08    24   2.27135e+08   2.25673e+08  2159502    0.64%
 134426 90491   2.25673e+08    21   2.27135e+08   2.25673e+08  2159533    0.64%
 134427 90492   2.25673e+08    26   2.27135e+08   2.25673e+08  2159554    0.64%
 134428 90493   2.25673e+08    26   2.27135e+08   2.25673e+08  2159558    0.64%
 134429 90494   2.25673e+08    26   2.27135e+08   2.25673e+08  2159570    0.64%
 134430 90495   2.25673e+08    27   2.27135e+08   2.25673e+08  2159592    0.64%
 134431 90496   2.25673e+08    25   2.27135e+08   2.25673e+08  2159593    0.64%
 134432 90497   2.25673e+08    24   2.27135e+08   2.25673e+08  2159597    0.64%
 134433 90498   2.25673e+08    22   2.27135e+08   2.25673e+08  2159600    0.64%
Elapsed time = 77.63 sec. (93030.88 ticks, tree = 60.32 MB, solutions = 18)
 139364 94068   2.25673e+08    19   2.27135e+08   2.25673e+08  2245563    0.64%
 139365 94067        cutoff         2.27135e+08   2.25673e+08  2245617    0.64%
 139366 94068   2.25673e+08    16   2.27135e+08   2.25673e+08  2245642    0.64%
 139367 94069   2.26288e+08    22   2.27135e+08   2.25673e+08  2245693    0.64%
 139368 94068        cutoff         2.27135e+08   2.25673e+08  2245696    0.64%
 139369 94067    infeasible         2.27135e+08   2.25673e+08  2245696    0.64%
 139370 94066        cutoff         2.27135e+08   2.25673e+08  2245795    0.64%
 139371 94065        cutoff         2.27135e+08   2.25673e+08  2245829    0.64%
 139372 94064        cutoff         2.27135e+08   2.25673e+08  2245862    0.64%
 139373 94065   2.25673e+08    17   2.27135e+08   2.25673e+08  2245938    0.64%
Elapsed time = 81.14 sec. (96860.05 ticks, tree = 62.54 MB, solutions = 18)
 143651 95680   2.25673e+08    38   2.27135e+08   2.25673e+08  2334177    0.64%
 143652 95681   2.25673e+08    30   2.27135e+08   2.25673e+08  2334190    0.64%
 143653 95682   2.25673e+08    27   2.27135e+08   2.25673e+08  2334209    0.64%
 143654 95683   2.25673e+08    30   2.27135e+08   2.25673e+08  2334255    0.64%
 143655 95684   2.25673e+08    28   2.27135e+08   2.25673e+08  2334258    0.64%
 143656 95685   2.25673e+08    27   2.27135e+08   2.25673e+08  2334260    0.64%
 143657 95686   2.25673e+08    27   2.27135e+08   2.25673e+08  2334261    0.64%
 143658 95687   2.25673e+08    32   2.27135e+08   2.25673e+08  2334266    0.64%
 143659 95688   2.25673e+08    27   2.27135e+08   2.25673e+08  2334269    0.64%
 143660 95689   2.25673e+08    21   2.27135e+08   2.25673e+08  2334304    0.64%
Elapsed time = 84.67 sec. (100682.75 ticks, tree = 63.63 MB, solutions = 18)
 148596 98429   2.25673e+08    27   2.27135e+08   2.25673e+08  2421819    0.64%
 148597 98430   2.25673e+08    23   2.27135e+08   2.25673e+08  2421830    0.64%
 148598 98431   2.25673e+08    25   2.27135e+08   2.25673e+08  2421841    0.64%
 148599 98432   2.25673e+08    23   2.27135e+08   2.25673e+08  2421854    0.64%
 148600 98433   2.25673e+08    23   2.27135e+08   2.25673e+08  2421857    0.64%
 148601 98434   2.25673e+08    26   2.27135e+08   2.25673e+08  2421870    0.64%
 148602 98435   2.25673e+08    25   2.27135e+08   2.25673e+08  2421872    0.64%
 148603 98436   2.25673e+08    25   2.27135e+08   2.25673e+08  2421873    0.64%
 148604 98437   2.25673e+08    28   2.27135e+08   2.25673e+08  2421876    0.64%
 148605 98438   2.25673e+08    20   2.27135e+08   2.25673e+08  2421884    0.64%
Elapsed time = 88.17 sec. (104501.06 ticks, tree = 65.43 MB, solutions = 18)
*150899+95872                       2.26794e+08   2.25673e+08             0.49%
 151980 96593   2.26544e+08    32   2.26794e+08   2.25673e+08  2498075    0.49%
 151981 96594   2.26544e+08    32   2.26794e+08   2.25673e+08  2498076    0.49%
 151982 96593        cutoff         2.26794e+08   2.25673e+08  2498102    0.49%
 151983 96594   2.26544e+08    28   2.26794e+08   2.25673e+08  2498112    0.49%
 151984 96595   2.26544e+08    28   2.26794e+08   2.25673e+08  2498120    0.49%
 151985 96596   2.26544e+08    30   2.26794e+08   2.25673e+08  2498128    0.49%
 151986 96597   2.26544e+08    31   2.26794e+08   2.25673e+08  2498131    0.49%
 151987 96598   2.26544e+08    34   2.26794e+08   2.25673e+08  2498135    0.49%
 151988 96599   2.26544e+08    31   2.26794e+08   2.25673e+08  2498136    0.49%
 151989 96600   2.26544e+08    32   2.26794e+08   2.25673e+08  2498145    0.49%
Elapsed time = 91.69 sec. (108319.90 ticks, tree = 64.01 MB, solutions = 19)
 154199 97868   2.25679e+08    41   2.26794e+08   2.25673e+08  2541648    0.49%
 154200 97869   2.25680e+08    41   2.26794e+08   2.25673e+08  2541649    0.49%
 154201 97870   2.25811e+08    28   2.26794e+08   2.25673e+08  2541674    0.49%
 154202 97869        cutoff         2.26794e+08   2.25673e+08  2541692    0.49%
 154203 97868        cutoff         2.26794e+08   2.25673e+08  2541699    0.49%
 154204 97869   2.26089e+08    30   2.26794e+08   2.25673e+08  2541724    0.49%
 154205 97868        cutoff         2.26794e+08   2.25673e+08  2541729    0.49%
 154206 97867        cutoff         2.26794e+08   2.25673e+08  2541731    0.49%
 154207 97866        cutoff         2.26794e+08   2.25673e+08  2541798    0.49%
 154208 97865    infeasible         2.26794e+08   2.25673e+08  2541890    0.49%
Elapsed time = 95.12 sec. (112292.33 ticks, tree = 64.84 MB, solutions = 19)
*154899+97227                       2.26688e+08   2.25673e+08             0.45%
 157733 99132   2.25673e+08    18   2.26688e+08   2.25673e+08  2624575    0.45%
 157734 99133   2.25673e+08    16   2.26688e+08   2.25673e+08  2624613    0.45%
 157735 99134   2.25673e+08    17   2.26688e+08   2.25673e+08  2624627    0.45%
 157736 99135   2.25673e+08    17   2.26688e+08   2.25673e+08  2624641    0.45%
 157737 99136   2.26587e+08    32   2.26688e+08   2.25673e+08  2624889    0.45%
 157738 99137   2.25673e+08    19   2.26688e+08   2.25673e+08  2624941    0.45%
 157739 99138   2.25673e+08    19   2.26688e+08   2.25673e+08  2624954    0.45%
 157740 99139   2.25673e+08    19   2.26688e+08   2.25673e+08  2624975    0.45%
 157741 99140   2.25673e+08    19   2.26688e+08   2.25673e+08  2624978    0.45%
 157742 99141   2.25673e+08    19   2.26688e+08   2.25673e+08  2624983    0.45%
Elapsed time = 98.67 sec. (116120.18 ticks, tree = 65.56 MB, solutions = 20)

Cover cuts applied:  461
Mixed integer rounding cuts applied:  6
Gomory fractional cuts applied:  8

Root node processing (before b&c):
  Real time             =    0.06 sec. (67.05 ticks)
Sequential b&c:
  Real time             =   99.94 sec. (117541.10 ticks)
                          ------------
Total (root+branch&cut) =  100.00 sec. (117608.15 ticks)

Solution pool: 20 solutions saved.

MIP - Time limit exceeded, integer feasible:  Objective =  2.2668759900e+08
Current MIP best bound =  2.2567326400e+08 (gap = 1.01434e+06, 0.45%)
Solution time =  100.00 sec.  Iterations = 2658130  Nodes = 159462 (100326)
Deterministic time = 117608.15 ticks  (1176.08 ticks/sec)


Incumbent solution written to file '/tmp/tmpX0wQ8d.cplex.sol'.
